Route #1: 1 1 6 25 13 28 11 15 19 1 
Route #2: 1 9 21 4 29 23 8 26 1 
Route #3: 1 17 12 7 22 5 3 1 
Route #4: 1 18 16 30 10 27 2 14 24 1 
Route #5: 1 20 1 

Cost 649.905
Time 0.1552


 * Another infos *

 Iterations: 31 Time: 0.1552 sec - 0.0026 min - 0.0000 horas
0.0000 h 0.0026 min
Problem dimension: 31
